r = [
0,147,354,17,55,77,314,115,47,301,113,379,342,239,140,136,62,296,335,133,372,108,194,122,13,350,0
];
p = [
0,7,27,11,17,24,16,24,26,18,6,7,30,28,30,17,13,12,24,18,13,8,23,2,1,30,0
];
e = [
0,3,4,20,17,20,1,15,18,8,10,3,11,12,9,4,4,4,20,4,3,3,16,8,16,12,0
];
d = [
0,182,381,143,163,221,330,139,100,319,197,430,464,267,170,179,177,308,448,178,508,222,217,124,59,398,515
];
d_bar = [
0,186,395,149,172,233,338,151,113,328,200,434,479,281,185,188,184,314,460,187,515,226,229,125,60,413,515
];
w = [
0,0.75,0.285714286,3.333333333,1.888888889,1.666666667,0.125,1.25,1.384615385,0.888888889,3.333333333,0.75,0.733333333,0.857142857,0.6,0.444444444,0.571428571,0.666666667,1.666666667,0.444444444,0.428571429,0.75,1.333333333,8,16,0.8,0
];
